50	100	100	100
7	1	7
1	9	8
8	9	5
7	2	2
9	8	9
5	1	3
5	2	6
2	6	4
8	7	6
8	3	5
4	3	9
5	8	5
5	4	8
5	5	1
3	6	7
9	4	8
6	1	9
5	3	2
3	4	7
9	4	2
7	7	6
7	4	9
9	7	6
4	1	3
2	5	9
6	6	8
8	3	2
9	8	1
9	5	2
1	8	6
5	2	3
1	8	4
7	8	5
2	3	2
8	2	9
7	6	5
7	8	2
8	1	2
2	4	8
6	9	5
1	9	3
2	2	3
1	1	8
3	5	4
1	7	2
6	7	7
7	1	9
3	1	4
4	8	4
5	1	8
